Version identifier: 22.1.0.0 | 2022-03-09 | 1a383f8ce
CPXPARAM_Threads                                 1
CPXPARAM_MIP_Strategy_VariableSelect             3
CPXPARAM_TimeLimit                               599.99998398399998
1 of 1 MIP starts provided solutions.
MIP start 'm1' defined initial solution with objective 1.0000.
Tried aggregator 2 times.
MIP Presolve eliminated 38 rows and 1 columns.
MIP Presolve added 36 rows and 9 columns.
MIP Presolve modified 46 coefficients.
Aggregator did 9 substitutions.
Reduced MIP has 1815 rows, 7800 columns, and 125454 nonzeros.
Reduced MIP has 7800 binaries, 0 generals, 0 SOSs, and 0 indicators.
Presolve time = 0.16 sec. (223.13 ticks)
Probing time = 0.02 sec. (24.29 ticks)
Tried aggregator 1 time.
Detecting symmetries...
MIP Presolve modified 12 coefficients.
Reduced MIP has 1815 rows, 7800 columns, and 125754 nonzeros.
Reduced MIP has 7800 binaries, 0 generals, 0 SOSs, and 0 indicators.
Presolve time = 0.12 sec. (171.00 ticks)
Probing time = 0.02 sec. (24.31 ticks)
Clique table members: 899.
MIP emphasis: balance optimality and feasibility.
MIP search method: dynamic search.
Parallel mode: none, using 1 thread.
Root relaxation solution time = 1.82 sec. (2269.75 ticks)

        Nodes                                         Cuts/
   Node  Left     Objective  IInf  Best Integer    Best Bound    ItCnt     Gap

*     0+    0                            1.0000    45150.0000              --- 
      0     0      300.0000  1123        1.0000      300.0000     4981     --- 
*     0+    0                           63.0000      300.0000           376.19%
      0     0      300.0000   888       63.0000       Cuts: 9    10898  376.19%
      0     0      300.0000   393       63.0000      Cuts: 15    14812  376.19%
      0     0      300.0000   371       63.0000       Cuts: 6    15791  376.19%
*     0+    0                          274.0000      300.0000             9.49%
*     0+    0                          288.0000      300.0000             4.17%
      0     0        cutoff            288.0000      300.0000    15791    4.17%
*     0+    0                          292.0000      300.0000             2.74%
      0     0        cutoff            292.0000      300.0000    15791    2.74%
Detecting symmetries...
      0     2      300.0000   267      292.0000      300.0000    15791    2.74%
Elapsed time = 66.55 sec. (78070.67 ticks, tree = 0.01 MB, solutions = 5)
      1     3      300.0000   445      292.0000      300.0000    23936    2.74%
      2     4      300.0000   360      292.0000      300.0000    28405    2.74%
      3     5      300.0000   368      292.0000      300.0000    32645    2.74%
      4     6      300.0000   362      292.0000      300.0000    33453    2.74%
      5     7      300.0000   343      292.0000      300.0000    34604    2.74%
      6     8      300.0000   324      292.0000      300.0000    44616    2.74%
      7     9      300.0000   294      292.0000      300.0000    49356    2.74%
      8    10      300.0000   288      292.0000      300.0000    54669    2.74%
      9    11      300.0000   978      292.0000      300.0000    60941    2.74%
     11    13      300.0000   964      292.0000      300.0000    67958    2.74%
Elapsed time = 88.14 sec. (101341.77 ticks, tree = 0.12 MB, solutions = 5)
     12    14      300.0000   289      292.0000      300.0000    69623    2.74%
     13    15      300.0000   361      292.0000      300.0000    74477    2.74%
     14    16      300.0000   562      292.0000      300.0000    80600    2.74%
     15    17      300.0000  1193      292.0000      300.0000    86941    2.74%
     16    18      300.0000   345      292.0000      300.0000    95815    2.74%
     17    19      300.0000   399      292.0000      300.0000   100832    2.74%
     19    21      300.0000   328      292.0000      300.0000   103158    2.74%
     20    22      300.0000   343      292.0000      300.0000   106386    2.74%
     23    25      300.0000   341      292.0000      300.0000   107866    2.74%
     25    27      300.0000   330      292.0000      300.0000   112102    2.74%
Elapsed time = 107.26 sec. (121651.85 ticks, tree = 0.30 MB, solutions = 5)
     27    29      300.0000   345      292.0000      300.0000   119026    2.74%
     29    31      300.0000   410      292.0000      300.0000   129080    2.74%
     31    33      300.0000   368      292.0000      300.0000   138596    2.74%
     33    35      300.0000   444      292.0000      300.0000   149724    2.74%
     35    37      300.0000  1338      292.0000      300.0000   159688    2.74%
     37    39      300.0000   906      292.0000      300.0000   162508    2.74%
     38    40      300.0000   703      292.0000      300.0000   170074    2.74%
     39    41      300.0000  1162      292.0000      300.0000   174312    2.74%
     40    42      300.0000   676      292.0000      300.0000   174493    2.74%
     41    43      300.0000   556      292.0000      300.0000   181790    2.74%
Elapsed time = 130.05 sec. (145632.20 ticks, tree = 0.59 MB, solutions = 5)
     42    44      300.0000   779      292.0000      300.0000   193446    2.74%
     44    46      300.0000   511      292.0000      300.0000   195773    2.74%
     47    49      300.0000   406      292.0000      300.0000   199534    2.74%
     48    50      300.0000   443      292.0000      300.0000   204787    2.74%
     50    52      300.0000   445      292.0000      300.0000   208087    2.74%
     52    54      300.0000   462      292.0000      300.0000   212483    2.74%
     56    58      300.0000   433      292.0000      300.0000   218707    2.74%
     58    60      300.0000   435      292.0000      300.0000   224114    2.74%
     60    62      300.0000   412      292.0000      300.0000   229741    2.74%
     62    64      300.0000   404      292.0000      300.0000   233571    2.74%
Elapsed time = 159.30 sec. (174999.38 ticks, tree = 0.93 MB, solutions = 5)
     65    67      300.0000   368      292.0000      300.0000   237259    2.74%
     68    70      300.0000   345      292.0000      300.0000   240186    2.74%
     70    72      300.0000   339      292.0000      300.0000   244469    2.74%
     71    73      300.0000   423      292.0000      300.0000   251571    2.74%
     74    76      300.0000   311      292.0000      300.0000   256764    2.74%
     76    78      300.0000   314      292.0000      300.0000   263129    2.74%
     78    80      300.0000   310      292.0000      300.0000   268826    2.74%
     80    82      300.0000   290      292.0000      300.0000   274397    2.74%
     82    84      300.0000   282      292.0000      300.0000   279649    2.74%
     85    87      300.0000   289      292.0000      300.0000   285810    2.74%
Elapsed time = 173.80 sec. (188953.73 ticks, tree = 1.33 MB, solutions = 5)
     86    88      300.0000   341      292.0000      300.0000   289491    2.74%
     87    89      300.0000   362      292.0000      300.0000   295394    2.74%
     89    91      300.0000   375      292.0000      300.0000   302044    2.74%
     91    93      300.0000   388      292.0000      300.0000   309030    2.74%
     93    95      300.0000   337      292.0000      300.0000   315362    2.74%
     96    97      300.0000   304      292.0000      300.0000   319897    2.74%
     98    99      300.0000   335      292.0000      300.0000   329789    2.74%
     99   100      300.0000   711      292.0000      300.0000   333884    2.74%
    100   101      300.0000   340      292.0000      300.0000   338131    2.74%
    102   103      300.0000   364      292.0000      300.0000   340334    2.74%
Elapsed time = 188.88 sec. (205315.14 ticks, tree = 1.61 MB, solutions = 5)
    103   104      300.0000   415      292.0000      300.0000   348444    2.74%
    105   106      300.0000   336      292.0000      300.0000   358859    2.74%
    108   109      300.0000   380      292.0000      300.0000   366068    2.74%
    111   112      300.0000   341      292.0000      300.0000   369083    2.74%
    114   115      300.0000   324      292.0000      300.0000   373818    2.74%
    116   117      300.0000   329      292.0000      300.0000   382831    2.74%
    119   120      300.0000   346      292.0000      300.0000   389574    2.74%
    120   121      300.0000   291      292.0000      300.0000   389582    2.74%
    122   123      300.0000   298      292.0000      300.0000   397518    2.74%
    123   124      300.0000   351      292.0000      300.0000   406324    2.74%
Elapsed time = 203.56 sec. (218908.35 ticks, tree = 1.97 MB, solutions = 5)
    126   127      300.0000   377      292.0000      300.0000   418237    2.74%
    128   129      300.0000   331      292.0000      300.0000   425167    2.74%
    130   131      300.0000   357      292.0000      300.0000   434109    2.74%
    133   134      300.0000   288      292.0000      300.0000   438256    2.74%
    134   135      300.0000   321      292.0000      300.0000   447149    2.74%
    136   137      300.0000   331      292.0000      300.0000   454200    2.74%
    138   139      300.0000   380      292.0000      300.0000   472652    2.74%
    140   141      300.0000   293      292.0000      300.0000   472893    2.74%
    141   142      300.0000   476      292.0000      300.0000   480358    2.74%
    143   144      300.0000   369      292.0000      300.0000   489767    2.74%
Elapsed time = 219.79 sec. (233624.33 ticks, tree = 2.28 MB, solutions = 5)
    146   147      300.0000   285      292.0000      300.0000   494957    2.74%
    147   148      300.0000   335      292.0000      300.0000   505552    2.74%
    150   151      300.0000   325      292.0000      300.0000   511719    2.74%
    152   153      300.0000   310      292.0000      300.0000   518820    2.74%
    154   155      300.0000   316      292.0000      300.0000   527544    2.74%
    156   157      300.0000   394      292.0000      300.0000   532945    2.74%
    158   159      300.0000   367      292.0000      300.0000   540736    2.74%
    160   161      300.0000   329      292.0000      300.0000   550151    2.74%
    164   165      300.0000   362      292.0000      300.0000   559360    2.74%
    166   167      300.0000   355      292.0000      300.0000   568832    2.74%
Elapsed time = 233.85 sec. (246994.44 ticks, tree = 2.35 MB, solutions = 5)
    168   169      300.0000   401      292.0000      300.0000   579419    2.74%
    170   171      300.0000   332      292.0000      300.0000   586943    2.74%
    173   174      300.0000   292      292.0000      300.0000   593416    2.74%
    174   175      300.0000   372      292.0000      300.0000   605954    2.74%
    177   178      300.0000   285      292.0000      300.0000   610869    2.74%
    179   180      300.0000   286      292.0000      300.0000   618111    2.74%
    180   181      300.0000   328      292.0000      300.0000   627972    2.74%
    182   183      300.0000   313      292.0000      300.0000   633741    2.74%
    184   185      300.0000   297      292.0000      300.0000   640830    2.74%
    190   191      300.0000   371      292.0000      300.0000   664754    2.74%
Elapsed time = 253.73 sec. (265300.31 ticks, tree = 2.43 MB, solutions = 5)
    192   193      300.0000   528      292.0000      300.0000   692672    2.74%
    199   200      300.0000   315      292.0000      300.0000   711564    2.74%
    202   203      300.0000   561      292.0000      300.0000   729717    2.74%
    208   207      300.0000   406      292.0000      300.0000   761180    2.74%
    210   207      300.0000   380      292.0000      300.0000   789344    2.74%
    212   209      300.0000   446      292.0000      300.0000   806281    2.74%
    219   210    infeasible            292.0000      300.0000   834220    2.74%
    227   212    infeasible            292.0000      300.0000   847194    2.74%
    236   213      300.0000   410      292.0000      300.0000   857774    2.74%
    244   215      300.0000   463      292.0000      300.0000   867315    2.74%
Elapsed time = 301.19 sec. (314583.29 ticks, tree = 2.54 MB, solutions = 5)
    251   218      300.0000   415      292.0000      300.0000   877264    2.74%
    259   218      300.0000   395      292.0000      300.0000   888628    2.74%
    268   219      300.0000   391      292.0000      300.0000   900708    2.74%
    276   221    infeasible            292.0000      300.0000   912328    2.74%
    284   221    infeasible            292.0000      300.0000   923144    2.74%
    293   224      300.0000   462      292.0000      300.0000   932894    2.74%
    302   223    infeasible            292.0000      300.0000   944950    2.74%
    305   224      300.0000   514      292.0000      300.0000   954477    2.74%
    311   230      300.0000   523      292.0000      300.0000   962817    2.74%
    316   235      300.0000   435      292.0000      300.0000   972201    2.74%
Elapsed time = 336.84 sec. (355453.12 ticks, tree = 2.61 MB, solutions = 5)
    321   240      300.0000   494      292.0000      300.0000   981478    2.74%
    327   246      300.0000   482      292.0000      300.0000   990235    2.74%
    335   254      300.0000   476      292.0000      300.0000   997467    2.74%
    340   258      299.0000   456      292.0000      300.0000  1008123    2.74%
    347   265      300.0000   385      292.0000      300.0000  1017525    2.74%
    355   272      300.0000   324      292.0000      300.0000  1028783    2.74%
    362   278      300.0000   285      292.0000      300.0000  1038534    2.74%
    369   284      300.0000   274      292.0000      300.0000  1051846    2.74%
    376   289      300.0000   271      292.0000      300.0000  1065805    2.74%
    384   295      299.0000   306      292.0000      300.0000  1078867    2.74%
Elapsed time = 385.13 sec. (406284.11 ticks, tree = 2.81 MB, solutions = 5)
    392   302      298.2741   429      292.0000      300.0000  1090942    2.74%
    400   307      298.0000   298      292.0000      300.0000  1107866    2.74%
    408   312      298.0000   398      292.0000      300.0000  1123051    2.74%
    418   317      297.4863   455      292.0000      300.0000  1140391    2.74%
    429   324      296.0000   586      292.0000      300.0000  1153647    2.74%
    440   332      295.0000   282      292.0000      300.0000  1163979    2.74%
    454   342      295.0000   325      292.0000      300.0000  1175570    2.74%
    468   353      295.0000   299      292.0000      300.0000  1183045    2.74%
    482   361      295.0000   240      292.0000      300.0000  1190396    2.74%
    499   366    infeasible            292.0000      300.0000  1203632    2.74%
Elapsed time = 425.29 sec. (447246.03 ticks, tree = 3.05 MB, solutions = 5)
    514   369      295.0000   269      292.0000      300.0000  1215164    2.74%
    525   367      299.0000   421      292.0000      300.0000  1233225    2.74%
    526   368      300.0000   375      292.0000      300.0000  1242259    2.74%
    531   371    infeasible            292.0000      300.0000  1253544    2.74%
    538   374    infeasible            292.0000      300.0000  1262231    2.74%
    549   379    infeasible            292.0000      300.0000  1274665    2.74%
    557   381      300.0000   317      292.0000      300.0000  1285936    2.74%
    560   382      300.0000   323      292.0000      300.0000  1289823    2.74%
    567   385      300.0000   376      292.0000      300.0000  1301707    2.74%
    578   386    infeasible            292.0000      300.0000  1314257    2.74%
Elapsed time = 465.99 sec. (491427.69 ticks, tree = 3.11 MB, solutions = 5)
    588   389    infeasible            292.0000      300.0000  1326358    2.74%
    600   395      299.0000   242      292.0000      300.0000  1336727    2.74%
    610   395      299.0000   464      292.0000      300.0000  1347306    2.74%
    619   403      298.0000   458      292.0000      300.0000  1359215    2.74%
    626   408      298.3333   331      292.0000      300.0000  1373267    2.74%
    632   412      299.0000   240      292.0000      300.0000  1385818    2.74%
    638   416      299.0000   193      292.0000      300.0000  1402320    2.74%
    644   420      298.3807   395      292.0000      300.0000  1418202    2.74%
    655   429      298.0000   402      292.0000      300.0000  1427378    2.74%
    666   437      297.0000   352      292.0000      300.0000  1437990    2.74%
Elapsed time = 504.36 sec. (532295.62 ticks, tree = 3.28 MB, solutions = 5)
    676   443      298.0000   335      292.0000      300.0000  1451916    2.74%
    687   451      298.0000   320      292.0000      300.0000  1462292    2.74%
    701   460      297.0000   390      292.0000      300.0000  1473711    2.74%
    712   466      296.0000   331      292.0000      300.0000  1485040    2.74%
    727   476      297.0000   417      292.0000      300.0000  1493200    2.74%
    743   486      295.0000   399      292.0000      300.0000  1502090    2.74%
    760   499      295.0000   386      292.0000      300.0000  1510937    2.74%
    781   501      294.0000   334      292.0000      300.0000  1523701    2.74%
    800   504      293.0000   333      292.0000      300.0000  1534465    2.74%
    821   507      293.0000   278      292.0000      300.0000  1546895    2.74%
Elapsed time = 543.21 sec. (572077.40 ticks, tree = 3.51 MB, solutions = 5)
    836   510      298.0000   321      292.0000      300.0000  1560799    2.74%
    847   520      297.0000   370      292.0000      300.0000  1570518    2.74%
    860   529      296.0000   209      292.0000      300.0000  1577941    2.74%
    877   534      296.0000   197      292.0000      300.0000  1590543    2.74%
    886   534      299.0000   348      292.0000      300.0000  1605529    2.74%
    896   542      297.0000   458      292.0000      300.0000  1616601    2.74%
Starting limited solution polishing.
    907   552      296.0000   362      292.0000      300.0000  1623918    2.74%
    923   555      296.0000   373      292.0000      300.0000  1633976    2.74%
    941   557      296.0000   297      292.0000      300.0000  1645122    2.74%
    957   561      296.0000   302      292.0000      300.0000  1655997    2.74%
Elapsed time = 581.55 sec. (612620.75 ticks, tree = 3.71 MB, solutions = 5)
    976   561      296.0000   287      292.0000      300.0000  1666897    2.74%
    991   563      299.0000   411      292.0000      300.0000  1678348    2.74%

Clique cuts applied:  35
Zero-half cuts applied:  10

Root node processing (before b&c):
  Real time             =   66.49 sec. (78014.62 ticks)
Sequential b&c:
  Real time             =  533.52 sec. (552797.78 ticks)
                          ------------
Total (root+branch&cut) =  600.01 sec. (630812.40 ticks)
Primal:	292
Dual:	300
Status:	Feasible
Time:	600.04
Sequence:
	18
	4
	15
	20
	21
	24
	1
	17
	0
	6
	23
	22
	10
	15
	20
	1
	17
	13
	17
	13
	4
	15
	16
	15
	7
	11
	17
	13
	17
	13
	4
	15
	10
	1
	0
	1
	10
	15
	4
	13
	17
	13
	4
	15
	10
	6
	18
	3
	18
	6
	20
	2
	18
	1
	20
	2
	9
	1
	24
	21
	10
	15
	11
	7
	18
	6
	24
	21
	9
	15
	20
	2
	9
	1
	24
	21
	10
	15
	20
	22
	9
	6
	16
	5
	9
	15
	20
	2
	9
	1
	24
	21
	10
	15
	13
	4
	18
	6
	20
	22
	9
	1
	16
	21
	9
	15
	16
	21
	9
	15
	23
	2
	10
	1
	24
	2
	9
	6
	24
	21
	9
	15
	16
	5
	10
	15
	23
	21
	0
	3
	11
	17
	0
	19
	11
	17
	14
	8
	13
	4
	22
	16
	15
	7
	13
	17
	11
	5
	16
	21
	23
	2
	20
	5
	16
	5
	3
	0
	6
	12
	8
	14
	3
	0
	3
	18
	19
	14
	8
	12
	3
	0
	19
	12
	8
	12
	19
	0
	3
	12
	8
	14
	19
	18
	3
	18
	19
	14
	8
	12
	3
	0
	19
	12
	8
	12
	19
	0
	3
	18
	3
	21
	16
	5
	23
	22
	20
	21
	24
	5
	23
	2
	20
	5
	24
	21
	23
	2
	23
	21
	24
	5
	20
	2
	23
	1
	24
	21
	19
	18
	3
	0
	1
	10
	15
	9
	6
	17
	13
	17
	11
	19
	0
	4
	13
	8
	14
	17
	11
	19
	18
	7
	11
	8
	14
	17
	13
	19
	18
	4
	1
	16
	2
	9
	1
	24
	21
	10
	15
	20
	22
	9
	6
	8
	14
	17
	11
	19
	0
	4
	11
	8
	0
	7
	11
	8
	0
	7
	11
	8
	0
	4
